\* HB_Infer *\
Minimize
OBJ: A0 + A1 + A10 + A100 + A101 + A102 + A103 + A104 + A105 + A106 + A107
+ A108 + A109 + A11 + A110 + A111 + A112 + A113 + A114 + A115 + A116 + A117
+ A118 + A119 + A12 + A120 + A121 + A122 + A123 + A124 + A125 + A126 + A127
+ A128 + A129 + A13 + A130 + A131 + A132 + A133 + A134 + A135 + A136 + A137
+ A138 + A139 + A14 + A140 + A141 + A142 + A143 + A144 + A145 + A146 + A147
+ A148 + A149 + A15 + A150 + A151 + A152 + A153 + A154 + A155 + A156 + A157
+ A158 + A159 + A16 + A160 + A161 + A162 + A163 + A164 + A165 + A166 + A167
+ A168 + A169 + A17 + A170 + A171 + A172 + A173 + A174 + A175 + A176 + A177
+ A178 + A179 + A18 + A180 + A181 + A182 + A183 + A184 + A185 + A186 + A187
+ A19 + A2 + A20 + A21 + A22 + A23 + A24 + A25 + A26 + A27 + A28 + A29 + A3
+ A30 + A31 + A32 + A33 + A34 + A35 + A36 + A37 + A38 + A39 + A4 + A40 + A41
+ A42 + A43 + A44 + A45 + A46 + A47 + A48 + A49 + A5 + A50 + A51 + A52 + A53
+ A54 + A55 + A56 + A57 + A58 + A59 + A6 + A60 + A61 + A62 + A63 + A64 + A65
+ A66 + A67 + A68 + A69 + A7 + A70 + A71 + A72 + A73 + A74 + A75 + A76 + A77
+ A78 + A79 + A8 + A80 + A81 + A82 + A83 + A84 + A85 + A86 + A87 + A88 + A89
+ A9 + A90 + A91 + A92 + A93 + A94 + A95 + A96 + A97 + A98 + A99 + Penalty0
+ Penalty1 + Penalty10 + Penalty11 + Penalty12 + Penalty13 + Penalty14
+ Penalty15 + Penalty2 + Penalty3 + Penalty4 + Penalty5 + Penalty6 + Penalty7
+ Penalty8 + Penalty9 + R0 + R1 + R10 + R100 + R101 + R102 + R103 + R104 + R105
+ R106 + R107 + R108 + R109 + R11 + R110 + R111 + R112 + R113 + R114 + R115
+ R116 + R117 + R118 + R119 + R12 + R120 + R121 + R122 + R123 + R124 + R125
+ R126 + R127 + R128 + R129 + R13 + R130 + R131 + R132 + R133 + R134 + R135
+ R136 + R137 + R138 + R139 + R14 + R140 + R141 + R142 + R143 + R144 + R145
+ R146 + R147 + R148 + R149 + R15 + R150 + R151 + R152 + R153 + R154 + R155
+ R156 + R157 + R158 + R159 + R16 + R160 + R161 + R162 + R163 + R164 + R165
+ R166 + R167 + R168 + R169 + R17 + R170 + R171 + R172 + R173 + R174 + R175
+ R176 + R177 + R178 + R179 + R18 + R180 + R181 + R182 + R183 + R184 + R185
+ R186 + R187 + R19 + R2 + R20 + R21 + R22 + R23 + R24 + R25 + R26 + R27 + R28
+ R29 + R3 + R30 + R31 + R32 + R33 + R34 + R35 + R36 + R37 + R38 + R39 + R4
+ R40 + R41 + R42 + R43 + R44 + R45 + R46 + R47 + R48 + R49 + R5 + R50 + R51
+ R52 + R53 + R54 + R55 + R56 + R57 + R58 + R59 + R6 + R60 + R61 + R62 + R63
+ R64 + R65 + R66 + R67 + R68 + R69 + R7 + R70 + R71 + R72 + R73 + R74 + R75
+ R76 + R77 + R78 + R79 + R8 + R80 + R81 + R82 + R83 + R84 + R85 + R86 + R87
+ R88 + R89 + R9 + R90 + R91 + R92 + R93 + R94 + R95 + R96 + R97 + R98 + R99
Subject To
_C1: Penalty0 + R100 + R101 + R102 + R103 + R104 + R105 + R106 + R107 + R108
+ R109 + R110 + R111 + R112 + R113 + R114 + R115 + R116 + R12 + R13 + R14 + R15
+ R16 + R17 + R18 + R19 + R20 + R21 + R22 + R23 + R24 + R61 + R62 + R63 + R64
+ R78 + R79 + R80 + R85 + R86 + R87 + R88 + R89 + R90 + R91 + R92 + R93 + R94
+ R95 + R96 + R97 + R98 + R99 >= 100
_C10: A186 + Penalty9 >= 100
_C100: A83 + R83 <= 100
_C101: A84 + R84 <= 100
_C102: A85 + R85 <= 100
_C103: A86 + R86 <= 100
_C104: A87 + R87 <= 100
_C105: A88 + R88 <= 100
_C106: A89 + R89 <= 100
_C107: A90 + R90 <= 100
_C108: A91 + R91 <= 100
_C109: A92 + R92 <= 100
_C11: A19 + A25 + A26 + A27 + A28 + A29 + A30 + Penalty10 >= 100
_C110: A93 + R93 <= 100
_C111: A94 + R94 <= 100
_C112: A95 + R95 <= 100
_C113: A96 + R96 <= 100
_C114: A97 + R97 <= 100
_C115: A98 + R98 <= 100
_C116: A99 + R99 <= 100
_C117: A100 + R100 <= 100
_C118: A101 + R101 <= 100
_C119: A102 + R102 <= 100
_C12: A19 + A25 + A26 + A27 + A28 + A29 + A30 + A31 + A32 + A33 + A65 + A66
+ Penalty11 >= 100
_C120: A103 + R103 <= 100
_C121: A104 + R104 <= 100
_C122: A105 + R105 <= 100
_C123: A106 + R106 <= 100
_C124: A107 + R107 <= 100
_C125: A108 + R108 <= 100
_C126: A109 + R109 <= 100
_C127: A110 + R110 <= 100
_C128: A111 + R111 <= 100
_C129: A112 + R112 <= 100
_C13: A186 + A187 + Penalty12 >= 100
_C130: A113 + R113 <= 100
_C131: A114 + R114 <= 100
_C132: A115 + R115 <= 100
_C133: A116 + R116 <= 100
_C134: A117 + R117 <= 100
_C135: A118 + R118 <= 100
_C136: A119 + R119 <= 100
_C137: A120 + R120 <= 100
_C138: A121 + R121 <= 100
_C139: A122 + R122 <= 100
_C14: A19 + A25 + A26 + A27 + A28 + A29 + A30 + A31 + A32 + A33 + Penalty13 >=
100
_C140: A123 + R123 <= 100
_C141: A124 + R124 <= 100
_C142: A125 + R125 <= 100
_C143: A126 + R126 <= 100
_C144: A127 + R127 <= 100
_C145: A128 + R128 <= 100
_C146: A129 + R129 <= 100
_C147: A130 + R130 <= 100
_C148: A131 + R131 <= 100
_C149: A132 + R132 <= 100
_C15: A19 + A25 + A26 + A27 + A28 + A29 + A30 + A31 + A32 + A33 + A65 + A66
+ A81 + A82 + A83 + A84 + Penalty14 >= 100
_C150: A133 + R133 <= 100
_C151: A134 + R134 <= 100
_C152: A135 + R135 <= 100
_C153: A136 + R136 <= 100
_C154: A137 + R137 <= 100
_C155: A138 + R138 <= 100
_C156: A139 + R139 <= 100
_C157: A140 + R140 <= 100
_C158: A141 + R141 <= 100
_C159: A142 + R142 <= 100
_C16: A117 + A118 + A119 + A120 + A121 + A122 + A123 + A124 + A125 + A126
+ A127 + A128 + A129 + A130 + A131 + A132 + A133 + A134 + A135 + A136 + A137
+ A138 + A139 + A140 + A141 + A142 + A143 + A144 + A145 + A146 + A147 + A148
+ A149 + A150 + A151 + A152 + A153 + A154 + A155 + A156 + A157 + A158 + A159
+ A160 + A161 + A162 + A163 + A164 + A165 + A166 + A167 + A168 + A169 + A170
+ A171 + A172 + A173 + A174 + A175 + A176 + A177 + A178 + A179 + A180 + A19
+ A25 + A26 + A27 + A28 + A29 + A30 + A31 + A32 + A33 + A65 + A66 + A81 + A82
+ A83 + A84 + Penalty15 >= 100
_C160: A143 + R143 <= 100
_C161: A144 + R144 <= 100
_C162: A145 + R145 <= 100
_C163: A146 + R146 <= 100
_C164: A147 + R147 <= 100
_C165: A148 + R148 <= 100
_C166: A149 + R149 <= 100
_C167: A150 + R150 <= 100
_C168: A151 + R151 <= 100
_C169: A152 + R152 <= 100
_C17: A0 + R0 <= 100
_C170: A153 + R153 <= 100
_C171: A154 + R154 <= 100
_C172: A155 + R155 <= 100
_C173: A156 + R156 <= 100
_C174: A157 + R157 <= 100
_C175: A158 + R158 <= 100
_C176: A159 + R159 <= 100
_C177: A160 + R160 <= 100
_C178: A161 + R161 <= 100
_C179: A162 + R162 <= 100
_C18: A1 + R1 <= 100
_C180: A163 + R163 <= 100
_C181: A164 + R164 <= 100
_C182: A165 + R165 <= 100
_C183: A166 + R166 <= 100
_C184: A167 + R167 <= 100
_C185: A168 + R168 <= 100
_C186: A169 + R169 <= 100
_C187: A170 + R170 <= 100
_C188: A171 + R171 <= 100
_C189: A172 + R172 <= 100
_C19: A2 + R2 <= 100
_C190: A173 + R173 <= 100
_C191: A174 + R174 <= 100
_C192: A175 + R175 <= 100
_C193: A176 + R176 <= 100
_C194: A177 + R177 <= 100
_C195: A178 + R178 <= 100
_C196: A179 + R179 <= 100
_C197: A180 + R180 <= 100
_C198: A181 + R181 <= 100
_C199: A182 + R182 <= 100
_C2: Penalty1 + R0 + R1 + R10 + R100 + R101 + R102 + R103 + R104 + R105 + R106
+ R107 + R108 + R109 + R11 + R110 + R111 + R112 + R113 + R114 + R115 + R116
+ R12 + R13 + R14 + R15 + R16 + R17 + R18 + R181 + R182 + R183 + R184 + R185
+ R19 + R2 + R20 + R21 + R22 + R23 + R24 + R3 + R34 + R35 + R36 + R37 + R38
+ R39 + R4 + R40 + R41 + R42 + R43 + R44 + R45 + R46 + R47 + R48 + R49 + R5
+ R50 + R51 + R52 + R53 + R54 + R55 + R56 + R57 + R58 + R59 + R6 + R60 + R61
+ R62 + R63 + R64 + R7 + R78 + R79 + R8 + R80 + R85 + R86 + R87 + R88 + R89
+ R9 + R90 + R91 + R92 + R93 + R94 + R95 + R96 + R97 + R98 + R99 >= 100
_C20: A3 + R3 <= 100
_C200: A183 + R183 <= 100
_C201: A184 + R184 <= 100
_C202: A185 + R185 <= 100
_C203: A186 + R186 <= 100
_C204: A187 + R187 <= 100
_C21: A4 + R4 <= 100
_C22: A5 + R5 <= 100
_C23: A6 + R6 <= 100
_C24: A7 + R7 <= 100
_C25: A8 + R8 <= 100
_C26: A9 + R9 <= 100
_C27: A10 + R10 <= 100
_C28: A11 + R11 <= 100
_C29: A12 + R12 <= 100
_C3: Penalty2 + R0 + R1 + R10 + R11 + R12 + R13 + R14 + R15 + R16 + R17 + R18
+ R19 + R2 + R20 + R21 + R22 + R23 + R24 + R3 + R34 + R35 + R36 + R37 + R38
+ R39 + R4 + R40 + R41 + R42 + R43 + R44 + R45 + R46 + R47 + R48 + R49 + R5
+ R50 + R51 + R52 + R53 + R54 + R55 + R56 + R57 + R58 + R59 + R6 + R60 + R61
+ R62 + R63 + R64 + R7 + R8 + R9 >= 100
_C30: A13 + R13 <= 100
_C31: A14 + R14 <= 100
_C32: A15 + R15 <= 100
_C33: A16 + R16 <= 100
_C34: A17 + R17 <= 100
_C35: A18 + R18 <= 100
_C36: A19 + R19 <= 100
_C37: A20 + R20 <= 100
_C38: A21 + R21 <= 100
_C39: A22 + R22 <= 100
_C4: Penalty3 + R0 + R1 + R10 + R100 + R101 + R102 + R103 + R104 + R105 + R106
+ R107 + R108 + R109 + R11 + R110 + R111 + R112 + R113 + R114 + R115 + R116
+ R12 + R13 + R14 + R15 + R16 + R17 + R18 + R19 + R2 + R20 + R21 + R22 + R23
+ R24 + R3 + R35 + R36 + R37 + R38 + R39 + R4 + R40 + R41 + R42 + R43 + R44
+ R45 + R46 + R47 + R48 + R49 + R5 + R50 + R51 + R52 + R53 + R54 + R55 + R56
+ R57 + R58 + R59 + R6 + R60 + R61 + R62 + R63 + R64 + R7 + R78 + R79 + R8
+ R80 + R85 + R86 + R87 + R88 + R89 + R9 + R90 + R91 + R92 + R93 + R94 + R95
+ R96 + R97 + R98 + R99 >= 100
_C40: A23 + R23 <= 100
_C41: A24 + R24 <= 100
_C42: A25 + R25 <= 100
_C43: A26 + R26 <= 100
_C44: A27 + R27 <= 100
_C45: A28 + R28 <= 100
_C46: A29 + R29 <= 100
_C47: A30 + R30 <= 100
_C48: A31 + R31 <= 100
_C49: A32 + R32 <= 100
_C5: Penalty4 + R0 + R1 + R10 + R100 + R101 + R102 + R103 + R104 + R105 + R106
+ R107 + R108 + R109 + R11 + R110 + R111 + R112 + R113 + R114 + R115 + R116
+ R12 + R13 + R14 + R15 + R16 + R17 + R18 + R181 + R182 + R183 + R19 + R2 + R20
+ R21 + R22 + R23 + R24 + R3 + R34 + R35 + R36 + R37 + R38 + R39 + R4 + R40
+ R41 + R42 + R43 + R44 + R45 + R46 + R47 + R48 + R49 + R5 + R50 + R51 + R52
+ R53 + R54 + R55 + R56 + R57 + R58 + R59 + R6 + R60 + R61 + R62 + R63 + R64
+ R7 + R78 + R79 + R8 + R80 + R85 + R86 + R87 + R88 + R89 + R9 + R90 + R91
+ R92 + R93 + R94 + R95 + R96 + R97 + R98 + R99 >= 100
_C50: A33 + R33 <= 100
_C51: A34 + R34 <= 100
_C52: A35 + R35 <= 100
_C53: A36 + R36 <= 100
_C54: A37 + R37 <= 100
_C55: A38 + R38 <= 100
_C56: A39 + R39 <= 100
_C57: A40 + R40 <= 100
_C58: A41 + R41 <= 100
_C59: A42 + R42 <= 100
_C6: Penalty5 + R10 + R11 + R12 + R13 + R14 + R15 + R16 + R17 + R18 + R19 + R20
+ R21 + R22 + R23 + R24 + R3 + R4 + R5 + R6 + R7 + R8 + R9 >= 100
_C60: A43 + R43 <= 100
_C61: A44 + R44 <= 100
_C62: A45 + R45 <= 100
_C63: A46 + R46 <= 100
_C64: A47 + R47 <= 100
_C65: A48 + R48 <= 100
_C66: A49 + R49 <= 100
_C67: A50 + R50 <= 100
_C68: A51 + R51 <= 100
_C69: A52 + R52 <= 100
_C7: Penalty6 + R0 + R1 + R10 + R11 + R12 + R13 + R14 + R15 + R16 + R17 + R18
+ R19 + R2 + R20 + R21 + R22 + R23 + R24 + R3 + R4 + R5 + R6 + R7 + R8 + R9 >=
100
_C70: A53 + R53 <= 100
_C71: A54 + R54 <= 100
_C72: A55 + R55 <= 100
_C73: A56 + R56 <= 100
_C74: A57 + R57 <= 100
_C75: A58 + R58 <= 100
_C76: A59 + R59 <= 100
_C77: A60 + R60 <= 100
_C78: A61 + R61 <= 100
_C79: A62 + R62 <= 100
_C8: Penalty7 + R0 + R1 + R10 + R11 + R12 + R13 + R14 + R15 + R16 + R17 + R18
+ R19 + R2 + R20 + R21 + R22 + R23 + R24 + R3 + R34 + R35 + R36 + R37 + R38
+ R39 + R4 + R40 + R41 + R42 + R43 + R44 + R45 + R46 + R47 + R48 + R49 + R5
+ R50 + R51 + R52 + R53 + R54 + R55 + R56 + R57 + R58 + R59 + R6 + R60 + R61
+ R62 + R63 + R64 + R67 + R68 + R69 + R7 + R70 + R71 + R72 + R73 + R74 + R75
+ R76 + R77 + R78 + R79 + R8 + R80 + R9 >= 100
_C80: A63 + R63 <= 100
_C81: A64 + R64 <= 100
_C82: A65 + R65 <= 100
_C83: A66 + R66 <= 100
_C84: A67 + R67 <= 100
_C85: A68 + R68 <= 100
_C86: A69 + R69 <= 100
_C87: A70 + R70 <= 100
_C88: A71 + R71 <= 100
_C89: A72 + R72 <= 100
_C9: A117 + A118 + A119 + A120 + A121 + A122 + A123 + A124 + A125 + A126 + A127
+ A128 + A129 + A130 + A131 + A132 + A133 + A134 + A135 + A136 + A137 + A138
+ A139 + A140 + A141 + A142 + A143 + A144 + A145 + A146 + A147 + A148 + A149
+ A150 + A151 + A152 + A153 + A154 + A155 + A156 + A157 + A158 + A159 + A160
+ A161 + A162 + A163 + A164 + A165 + A166 + A167 + A168 + A169 + A170 + A171
+ A172 + A173 + A174 + A175 + A176 + A19 + A25 + A26 + A27 + A28 + A29 + A30
+ A31 + A32 + A33 + A65 + A66 + A81 + A82 + A83 + A84 + Penalty8 >= 100
_C90: A73 + R73 <= 100
_C91: A74 + R74 <= 100
_C92: A75 + R75 <= 100
_C93: A76 + R76 <= 100
_C94: A77 + R77 <= 100
_C95: A78 + R78 <= 100
_C96: A79 + R79 <= 100
_C97: A80 + R80 <= 100
_C98: A81 + R81 <= 100
_C99: A82 + R82 <= 100
Bounds
0 <= A0 <= 100
0 <= A1 <= 100
0 <= A10 <= 100
0 <= A100 <= 100
0 <= A101 <= 100
0 <= A102 <= 100
0 <= A103 <= 100
0 <= A104 <= 100
0 <= A105 <= 100
0 <= A106 <= 100
0 <= A107 <= 100
0 <= A108 <= 100
0 <= A109 <= 100
0 <= A11 <= 100
0 <= A110 <= 100
0 <= A111 <= 100
0 <= A112 <= 100
0 <= A113 <= 100
0 <= A114 <= 100
0 <= A115 <= 100
0 <= A116 <= 100
0 <= A117 <= 100
0 <= A118 <= 100
0 <= A119 <= 100
0 <= A12 <= 100
0 <= A120 <= 100
0 <= A121 <= 100
0 <= A122 <= 100
0 <= A123 <= 100
0 <= A124 <= 100
0 <= A125 <= 100
0 <= A126 <= 100
0 <= A127 <= 100
0 <= A128 <= 100
0 <= A129 <= 100
0 <= A13 <= 100
0 <= A130 <= 100
0 <= A131 <= 100
0 <= A132 <= 100
0 <= A133 <= 100
0 <= A134 <= 100
0 <= A135 <= 100
0 <= A136 <= 100
0 <= A137 <= 100
0 <= A138 <= 100
0 <= A139 <= 100
0 <= A14 <= 100
0 <= A140 <= 100
0 <= A141 <= 100
0 <= A142 <= 100
0 <= A143 <= 100
0 <= A144 <= 100
0 <= A145 <= 100
0 <= A146 <= 100
0 <= A147 <= 100
0 <= A148 <= 100
0 <= A149 <= 100
0 <= A15 <= 100
0 <= A150 <= 100
0 <= A151 <= 100
0 <= A152 <= 100
0 <= A153 <= 100
0 <= A154 <= 100
0 <= A155 <= 100
0 <= A156 <= 100
0 <= A157 <= 100
0 <= A158 <= 100
0 <= A159 <= 100
0 <= A16 <= 100
0 <= A160 <= 100
0 <= A161 <= 100
0 <= A162 <= 100
0 <= A163 <= 100
0 <= A164 <= 100
0 <= A165 <= 100
0 <= A166 <= 100
0 <= A167 <= 100
0 <= A168 <= 100
0 <= A169 <= 100
0 <= A17 <= 100
0 <= A170 <= 100
0 <= A171 <= 100
0 <= A172 <= 100
0 <= A173 <= 100
0 <= A174 <= 100
0 <= A175 <= 100
0 <= A176 <= 100
0 <= A177 <= 100
0 <= A178 <= 100
0 <= A179 <= 100
0 <= A18 <= 100
0 <= A180 <= 100
0 <= A181 <= 100
0 <= A182 <= 100
0 <= A183 <= 100
0 <= A184 <= 100
0 <= A185 <= 100
0 <= A186 <= 100
0 <= A187 <= 100
0 <= A19 <= 100
0 <= A2 <= 100
0 <= A20 <= 100
0 <= A21 <= 100
0 <= A22 <= 100
0 <= A23 <= 100
0 <= A24 <= 100
0 <= A25 <= 100
0 <= A26 <= 100
0 <= A27 <= 100
0 <= A28 <= 100
0 <= A29 <= 100
0 <= A3 <= 100
0 <= A30 <= 100
0 <= A31 <= 100
0 <= A32 <= 100
0 <= A33 <= 100
0 <= A34 <= 100
0 <= A35 <= 100
0 <= A36 <= 100
0 <= A37 <= 100
0 <= A38 <= 100
0 <= A39 <= 100
0 <= A4 <= 100
0 <= A40 <= 100
0 <= A41 <= 100
0 <= A42 <= 100
0 <= A43 <= 100
0 <= A44 <= 100
0 <= A45 <= 100
0 <= A46 <= 100
0 <= A47 <= 100
0 <= A48 <= 100
0 <= A49 <= 100
0 <= A5 <= 100
0 <= A50 <= 100
0 <= A51 <= 100
0 <= A52 <= 100
0 <= A53 <= 100
0 <= A54 <= 100
0 <= A55 <= 100
0 <= A56 <= 100
0 <= A57 <= 100
0 <= A58 <= 100
0 <= A59 <= 100
0 <= A6 <= 100
0 <= A60 <= 100
0 <= A61 <= 100
0 <= A62 <= 100
0 <= A63 <= 100
0 <= A64 <= 100
0 <= A65 <= 100
0 <= A66 <= 100
0 <= A67 <= 100
0 <= A68 <= 100
0 <= A69 <= 100
0 <= A7 <= 100
0 <= A70 <= 100
0 <= A71 <= 100
0 <= A72 <= 100
0 <= A73 <= 100
0 <= A74 <= 100
0 <= A75 <= 100
0 <= A76 <= 100
0 <= A77 <= 100
0 <= A78 <= 100
0 <= A79 <= 100
0 <= A8 <= 100
0 <= A80 <= 100
0 <= A81 <= 100
0 <= A82 <= 100
0 <= A83 <= 100
0 <= A84 <= 100
0 <= A85 <= 100
0 <= A86 <= 100
0 <= A87 <= 100
0 <= A88 <= 100
0 <= A89 <= 100
0 <= A9 <= 100
0 <= A90 <= 100
0 <= A91 <= 100
0 <= A92 <= 100
0 <= A93 <= 100
0 <= A94 <= 100
0 <= A95 <= 100
0 <= A96 <= 100
0 <= A97 <= 100
0 <= A98 <= 100
0 <= A99 <= 100
0 <= Penalty0 <= 50
0 <= Penalty1 <= 50
0 <= Penalty10 <= 50
0 <= Penalty11 <= 50
0 <= Penalty12 <= 50
0 <= Penalty13 <= 50
0 <= Penalty14 <= 50
0 <= Penalty15 <= 50
0 <= Penalty2 <= 50
0 <= Penalty3 <= 50
0 <= Penalty4 <= 50
0 <= Penalty5 <= 50
0 <= Penalty6 <= 50
0 <= Penalty7 <= 50
0 <= Penalty8 <= 50
0 <= Penalty9 <= 50
0 <= R0 <= 100
0 <= R1 <= 100
0 <= R10 <= 100
0 <= R100 <= 100
0 <= R101 <= 100
0 <= R102 <= 100
0 <= R103 <= 100
0 <= R104 <= 100
0 <= R105 <= 100
0 <= R106 <= 100
0 <= R107 <= 100
0 <= R108 <= 100
0 <= R109 <= 100
0 <= R11 <= 100
0 <= R110 <= 100
0 <= R111 <= 100
0 <= R112 <= 100
0 <= R113 <= 100
0 <= R114 <= 100
0 <= R115 <= 100
0 <= R116 <= 100
0 <= R117 <= 100
0 <= R118 <= 100
0 <= R119 <= 100
0 <= R12 <= 100
0 <= R120 <= 100
0 <= R121 <= 100
0 <= R122 <= 100
0 <= R123 <= 100
0 <= R124 <= 100
0 <= R125 <= 100
0 <= R126 <= 100
0 <= R127 <= 100
0 <= R128 <= 100
0 <= R129 <= 100
0 <= R13 <= 100
0 <= R130 <= 100
0 <= R131 <= 100
0 <= R132 <= 100
0 <= R133 <= 100
0 <= R134 <= 100
0 <= R135 <= 100
0 <= R136 <= 100
0 <= R137 <= 100
0 <= R138 <= 100
0 <= R139 <= 100
0 <= R14 <= 100
0 <= R140 <= 100
0 <= R141 <= 100
0 <= R142 <= 100
0 <= R143 <= 100
0 <= R144 <= 100
0 <= R145 <= 100
0 <= R146 <= 100
0 <= R147 <= 100
0 <= R148 <= 100
0 <= R149 <= 100
0 <= R15 <= 100
0 <= R150 <= 100
0 <= R151 <= 100
0 <= R152 <= 100
0 <= R153 <= 100
0 <= R154 <= 100
0 <= R155 <= 100
0 <= R156 <= 100
0 <= R157 <= 100
0 <= R158 <= 100
0 <= R159 <= 100
0 <= R16 <= 100
0 <= R160 <= 100
0 <= R161 <= 100
0 <= R162 <= 100
0 <= R163 <= 100
0 <= R164 <= 100
0 <= R165 <= 100
0 <= R166 <= 100
0 <= R167 <= 100
0 <= R168 <= 100
0 <= R169 <= 100
0 <= R17 <= 100
0 <= R170 <= 100
0 <= R171 <= 100
0 <= R172 <= 100
0 <= R173 <= 100
0 <= R174 <= 100
0 <= R175 <= 100
0 <= R176 <= 100
0 <= R177 <= 100
0 <= R178 <= 100
0 <= R179 <= 100
0 <= R18 <= 100
0 <= R180 <= 100
0 <= R181 <= 100
0 <= R182 <= 100
0 <= R183 <= 100
0 <= R184 <= 100
0 <= R185 <= 100
0 <= R186 <= 100
0 <= R187 <= 100
0 <= R19 <= 100
0 <= R2 <= 100
0 <= R20 <= 100
0 <= R21 <= 100
0 <= R22 <= 100
0 <= R23 <= 100
0 <= R24 <= 100
0 <= R25 <= 100
0 <= R26 <= 100
0 <= R27 <= 100
0 <= R28 <= 100
0 <= R29 <= 100
0 <= R3 <= 100
0 <= R30 <= 100
0 <= R31 <= 100
0 <= R32 <= 100
0 <= R33 <= 100
0 <= R34 <= 100
0 <= R35 <= 100
0 <= R36 <= 100
0 <= R37 <= 100
0 <= R38 <= 100
0 <= R39 <= 100
0 <= R4 <= 100
0 <= R40 <= 100
0 <= R41 <= 100
0 <= R42 <= 100
0 <= R43 <= 100
0 <= R44 <= 100
0 <= R45 <= 100
0 <= R46 <= 100
0 <= R47 <= 100
0 <= R48 <= 100
0 <= R49 <= 100
0 <= R5 <= 100
0 <= R50 <= 100
0 <= R51 <= 100
0 <= R52 <= 100
0 <= R53 <= 100
0 <= R54 <= 100
0 <= R55 <= 100
0 <= R56 <= 100
0 <= R57 <= 100
0 <= R58 <= 100
0 <= R59 <= 100
0 <= R6 <= 100
0 <= R60 <= 100
0 <= R61 <= 100
0 <= R62 <= 100
0 <= R63 <= 100
0 <= R64 <= 100
0 <= R65 <= 100
0 <= R66 <= 100
0 <= R67 <= 100
0 <= R68 <= 100
0 <= R69 <= 100
0 <= R7 <= 100
0 <= R70 <= 100
0 <= R71 <= 100
0 <= R72 <= 100
0 <= R73 <= 100
0 <= R74 <= 100
0 <= R75 <= 100
0 <= R76 <= 100
0 <= R77 <= 100
0 <= R78 <= 100
0 <= R79 <= 100
0 <= R8 <= 100
0 <= R80 <= 100
0 <= R81 <= 100
0 <= R82 <= 100
0 <= R83 <= 100
0 <= R84 <= 100
0 <= R85 <= 100
0 <= R86 <= 100
0 <= R87 <= 100
0 <= R88 <= 100
0 <= R89 <= 100
0 <= R9 <= 100
0 <= R90 <= 100
0 <= R91 <= 100
0 <= R92 <= 100
0 <= R93 <= 100
0 <= R94 <= 100
0 <= R95 <= 100
0 <= R96 <= 100
0 <= R97 <= 100
0 <= R98 <= 100
0 <= R99 <= 100
Generals
A0
A1
A10
A100
A101
A102
A103
A104
A105
A106
A107
A108
A109
A11
A110
A111
A112
A113
A114
A115
A116
A117
A118
A119
A12
A120
A121
A122
A123
A124
A125
A126
A127
A128
A129
A13
A130
A131
A132
A133
A134
A135
A136
A137
A138
A139
A14
A140
A141
A142
A143
A144
A145
A146
A147
A148
A149
A15
A150
A151
A152
A153
A154
A155
A156
A157
A158
A159
A16
A160
A161
A162
A163
A164
A165
A166
A167
A168
A169
A17
A170
A171
A172
A173
A174
A175
A176
A177
A178
A179
A18
A180
A181
A182
A183
A184
A185
A186
A187
A19
A2
A20
A21
A22
A23
A24
A25
A26
A27
A28
A29
A3
A30
A31
A32
A33
A34
A35
A36
A37
A38
A39
A4
A40
A41
A42
A43
A44
A45
A46
A47
A48
A49
A5
A50
A51
A52
A53
A54
A55
A56
A57
A58
A59
A6
A60
A61
A62
A63
A64
A65
A66
A67
A68
A69
A7
A70
A71
A72
A73
A74
A75
A76
A77
A78
A79
A8
A80
A81
A82
A83
A84
A85
A86
A87
A88
A89
A9
A90
A91
A92
A93
A94
A95
A96
A97
A98
A99
Penalty0
Penalty1
Penalty10
Penalty11
Penalty12
Penalty13
Penalty14
Penalty15
Penalty2
Penalty3
Penalty4
Penalty5
Penalty6
Penalty7
Penalty8
Penalty9
R0
R1
R10
R100
R101
R102
R103
R104
R105
R106
R107
R108
R109
R11
R110
R111
R112
R113
R114
R115
R116
R117
R118
R119
R12
R120
R121
R122
R123
R124
R125
R126
R127
R128
R129
R13
R130
R131
R132
R133
R134
R135
R136
R137
R138
R139
R14
R140
R141
R142
R143
R144
R145
R146
R147
R148
R149
R15
R150
R151
R152
R153
R154
R155
R156
R157
R158
R159
R16
R160
R161
R162
R163
R164
R165
R166
R167
R168
R169
R17
R170
R171
R172
R173
R174
R175
R176
R177
R178
R179
R18
R180
R181
R182
R183
R184
R185
R186
R187
R19
R2
R20
R21
R22
R23
R24
R25
R26
R27
R28
R29
R3
R30
R31
R32
R33
R34
R35
R36
R37
R38
R39
R4
R40
R41
R42
R43
R44
R45
R46
R47
R48
R49
R5
R50
R51
R52
R53
R54
R55
R56
R57
R58
R59
R6
R60
R61
R62
R63
R64
R65
R66
R67
R68
R69
R7
R70
R71
R72
R73
R74
R75
R76
R77
R78
R79
R8
R80
R81
R82
R83
R84
R85
R86
R87
R88
R89
R9
R90
R91
R92
R93
R94
R95
R96
R97
R98
R99
End
